decision_x1=[0,2];
decision_x2=[0,2];
decision_x3=[0,2];
decision_x4=[0,2];
decision_x5=[0,2];
decision_x6=[0,2];
decision_x7=[0,2];
decision_x8=[0,2];
decision_x9=[0,2];
decision_x10=[0,2];
decision_x11=[0,2];
decision_x12=[0,2];
decision_x13=[0,2];
decision_x14=[0,2];
decision_x15=[0,2];
decision_x16=[0,2];
decision_x17=[0,2];
decision_x18=[0,2];
decision_x19=[0,2];
decision_x20=[0,2];
decision_x21=[0,2];
decision_x22=[0,2];
decision_x23=[0,2];
decision_x24=[0,2];
decision_x25=[0,2];
random_y1=[0,2];
random_y2=[0,2];
random_y3=[0,2];
random_y4=[0,2];
random_y5=[0,2];
constraint_x2_x1=[
0,0,9.3|
0,1,8.9|
0,2,5.9|
1,0,3.2|
1,1,3.7|
1,2,6.4|
2,0,4|
2,1,2.8|
2,2,4.4|
];
constraint_x3_x1=[
0,0,1.1|
0,1,0.18|
0,2,0.55|
1,0,5.6|
1,1,5.7|
1,2,9.7|
2,0,0.1|
2,1,2.7|
2,2,4.9|
];
constraint_x3_x2=[
0,0,3.5|
0,1,5.5|
0,2,6.1|
1,0,5.4|
1,1,5|
1,2,3.7|
2,0,1.2|
2,1,7.7|
2,2,9.5|
];
constraint_x4_x1=[
0,0,5|
0,1,1.9|
0,2,5.9|
1,0,6.9|
1,1,0.72|
1,2,9.6|
2,0,0.53|
2,1,5.4|
2,2,8.6|
];
constraint_x4_x2=[
0,0,3.6|
0,1,8.2|
0,2,2.9|
1,0,6.5|
1,1,6.3|
1,2,2.1|
2,0,7.5|
2,1,0.29|
2,2,5.2|
];
constraint_x5_x4=[
0,0,5|
0,1,5.1|
0,2,7.4|
1,0,7.1|
1,1,2.1|
1,2,4.7|
2,0,6.5|
2,1,1.7|
2,2,7.5|
];
constraint_x6_x1=[
0,0,5.4|
0,1,3.1|
0,2,8.4|
1,0,6.9|
1,1,1.9|
1,2,9.8|
2,0,0.54|
2,1,4|
2,2,8.6|
];
constraint_x6_x2=[
0,0,8.2|
0,1,0.3|
0,2,2.5|
1,0,5.7|
1,1,7.9|
1,2,1.5|
2,0,7.2|
2,1,5.9|
2,2,2.7|
];
constraint_x6_x5=[
0,0,5|
0,1,5.8|
0,2,6.8|
1,0,3.1|
1,1,9.7|
1,2,6.8|
2,0,9.8|
2,1,9.3|
2,2,2.3|
];
constraint_x7_x1=[
0,0,4|
0,1,3.2|
0,2,1.4|
1,0,8.7|
1,1,7.2|
1,2,4.7|
2,0,2.8|
2,1,6.1|
2,2,9.3|
];
constraint_x7_x2=[
0,0,1.3|
0,1,0.73|
0,2,8.7|
1,0,2.5|
1,1,8.6|
1,2,2.2|
2,0,5.7|
2,1,7.2|
2,2,9.2|
];
constraint_x7_x5=[
0,0,0.48|
0,1,8.6|
0,2,3|
1,0,7.1|
1,1,3.5|
1,2,7.7|
2,0,1.2|
2,1,0.57|
2,2,2|
];
constraint_x7_x6=[
0,0,2.6|
0,1,3.6|
0,2,4|
1,0,0.56|
1,1,1.4|
1,2,7.2|
2,0,5.6|
2,1,9.4|
2,2,2.2|
];
constraint_x8_x1=[
0,0,9.8|
0,1,9|
0,2,6.5|
1,0,5.9|
1,1,5.3|
1,2,8.4|
2,0,2.7|
2,1,4.4|
2,2,5.3|
];
constraint_x8_x3=[
0,0,1.6|
0,1,9.4|
0,2,1.2|
1,0,4.3|
1,1,1.4|
1,2,6.4|
2,0,3.1|
2,1,4.7|
2,2,4.3|
];
constraint_x8_x6=[
0,0,3.3|
0,1,8.6|
0,2,3|
1,0,0.21|
1,1,7|
1,2,2.8|
2,0,9.3|
2,1,8.5|
2,2,0.038|
];
constraint_x8_x7=[
0,0,8.2|
0,1,7.2|
0,2,4.7|
1,0,7.1|
1,1,7.9|
1,2,2.1|
2,0,0.9|
2,1,8.8|
2,2,2.3|
];
constraint_x9_x1=[
0,0,8.7|
0,1,8.6|
0,2,8.7|
1,0,7.5|
1,1,0.78|
1,2,2.9|
2,0,3|
2,1,3.6|
2,2,2.1|
];
constraint_x9_x2=[
0,0,7.8|
0,1,5.5|
0,2,4.9|
1,0,7.3|
1,1,9.8|
1,2,0.74|
2,0,5.3|
2,1,6.6|
2,2,4.4|
];
constraint_x9_x3=[
0,0,3.2|
0,1,8.6|
0,2,7.3|
1,0,1|
1,1,8.1|
1,2,7.5|
2,0,2.6|
2,1,7.5|
2,2,4.7|
];
constraint_x9_x5=[
0,0,5.1|
0,1,5.7|
0,2,8.5|
1,0,2|
1,1,4|
1,2,4.7|
2,0,0.6|
2,1,4.2|
2,2,9.1|
];
constraint_x9_x6=[
0,0,8.1|
0,1,0.38|
0,2,7.2|
1,0,8.2|
1,1,3.3|
1,2,0.68|
2,0,3.7|
2,1,2.9|
2,2,2|
];
constraint_x9_x7=[
0,0,5.9|
0,1,5.8|
0,2,3.1|
1,0,8.5|
1,1,3.7|
1,2,0.9|
2,0,4.3|
2,1,3.5|
2,2,4.5|
];
constraint_x9_x8=[
0,0,4.1|
0,1,3.2|
0,2,7.9|
1,0,8.2|
1,1,0.91|
1,2,6.2|
2,0,6.4|
2,1,9.1|
2,2,9.3|
];
constraint_x10_x1=[
0,0,0.4|
0,1,5.1|
0,2,1.4|
1,0,8|
1,1,3.6|
1,2,9|
2,0,6.1|
2,1,3.4|
2,2,9.9|
];
constraint_x10_x5=[
0,0,3.4|
0,1,8.6|
0,2,2.1|
1,0,4.7|
1,1,1.6|
1,2,1.9|
2,0,4.8|
2,1,5.8|
2,2,2|
];
constraint_x10_x6=[
0,0,9.5|
0,1,9.6|
0,2,6.7|
1,0,4.7|
1,1,4.5|
1,2,9.3|
2,0,3.8|
2,1,8.3|
2,2,4.3|
];
constraint_x10_x9=[
0,0,4.5|
0,1,2|
0,2,5.5|
1,0,2.1|
1,1,7.9|
1,2,6.9|
2,0,2.6|
2,1,5.6|
2,2,6.2|
];
constraint_x11_x1=[
0,0,1.9|
0,1,4.9|
0,2,7.2|
1,0,2|
1,1,4.8|
1,2,7.9|
2,0,7.6|
2,1,7.1|
2,2,5.5|
];
constraint_x11_x2=[
0,0,6.7|
0,1,0.53|
0,2,1.9|
1,0,4.8|
1,1,0.49|
1,2,4.4|
2,0,9|
2,1,1.6|
2,2,4.4|
];
constraint_x11_x5=[
0,0,2.9|
0,1,1.7|
0,2,4.6|
1,0,0.32|
1,1,3.7|
1,2,7.6|
2,0,7|
2,1,1.3|
2,2,3.8|
];
constraint_x11_x7=[
0,0,9.3|
0,1,0.66|
0,2,5.8|
1,0,8.1|
1,1,7.5|
1,2,1.6|
2,0,1.6|
2,1,4.9|
2,2,5.1|
];
constraint_x11_x9=[
0,0,8.5|
0,1,2.2|
0,2,3.4|
1,0,6.4|
1,1,9|
1,2,7.2|
2,0,5.6|
2,1,1.5|
2,2,0.69|
];
constraint_x11_x10=[
0,0,5.5|
0,1,3.1|
0,2,5.3|
1,0,8.1|
1,1,1.9|
1,2,8.1|
2,0,8.1|
2,1,6.8|
2,2,9.6|
];
constraint_x12_x1=[
0,0,0.63|
0,1,4.9|
0,2,3|
1,0,1.6|
1,1,6.8|
1,2,6.1|
2,0,4.2|
2,1,9.1|
2,2,6.2|
];
constraint_x12_x2=[
0,0,3|
0,1,4.4|
0,2,0.74|
1,0,8.5|
1,1,8.7|
1,2,8.4|
2,0,3.7|
2,1,0.34|
2,2,0.83|
];
constraint_x12_x3=[
0,0,2.6|
0,1,6.9|
0,2,2.9|
1,0,7.4|
1,1,1.1|
1,2,0.11|
2,0,4.9|
2,1,6.7|
2,2,8.4|
];
constraint_x12_x5=[
0,0,0.74|
0,1,6.5|
0,2,9.9|
1,0,4.5|
1,1,2.3|
1,2,9.1|
2,0,7.1|
2,1,9.3|
2,2,9.4|
];
constraint_x12_x6=[
0,0,1.6|
0,1,8.4|
0,2,5.2|
1,0,1.1|
1,1,2.2|
1,2,7.6|
2,0,7.3|
2,1,1.7|
2,2,2.6|
];
constraint_x12_x8=[
0,0,9.7|
0,1,7.9|
0,2,3.8|
1,0,3.3|
1,1,8.6|
1,2,0.74|
2,0,9.3|
2,1,3.9|
2,2,1.3|
];
constraint_x13_x2=[
0,0,5.2|
0,1,4.8|
0,2,0.97|
1,0,5|
1,1,6|
1,2,6.5|
2,0,4.5|
2,1,0.45|
2,2,1.1|
];
constraint_x13_x6=[
0,0,2.5|
0,1,8.4|
0,2,8.1|
1,0,3.9|
1,1,0.65|
1,2,3.6|
2,0,4.2|
2,1,8.9|
2,2,2.4|
];
constraint_x13_x7=[
0,0,2.1|
0,1,4.1|
0,2,0.94|
1,0,2.4|
1,1,4.5|
1,2,8|
2,0,9.3|
2,1,1.8|
2,2,4.1|
];
constraint_x13_x8=[
0,0,4.1|
0,1,6.7|
0,2,0.47|
1,0,0.62|
1,1,6.5|
1,2,8.4|
2,0,3.2|
2,1,4.3|
2,2,0.55|
];
constraint_x13_x11=[
0,0,3.7|
0,1,0.017|
0,2,9.9|
1,0,0.44|
1,1,6.8|
1,2,9|
2,0,3.4|
2,1,4.9|
2,2,2.3|
];
constraint_x14_x2=[
0,0,4.7|
0,1,3.7|
0,2,4.5|
1,0,4.1|
1,1,1.7|
1,2,5.9|
2,0,3.3|
2,1,2.4|
2,2,2.5|
];
constraint_x14_x3=[
0,0,4.1|
0,1,6.5|
0,2,4.3|
1,0,7.5|
1,1,4.8|
1,2,0.6|
2,0,4|
2,1,5.8|
2,2,0.74|
];
constraint_x14_x4=[
0,0,5.7|
0,1,7.6|
0,2,4.6|
1,0,9.3|
1,1,8.8|
1,2,2.7|
2,0,2.9|
2,1,8.8|
2,2,7.7|
];
constraint_x14_x5=[
0,0,2|
0,1,4.6|
0,2,5.2|
1,0,8.7|
1,1,9.9|
1,2,9.7|
2,0,7.2|
2,1,9.3|
2,2,2.7|
];
constraint_x14_x9=[
0,0,5|
0,1,2.3|
0,2,3.2|
1,0,6.2|
1,1,7.8|
1,2,9.4|
2,0,5.9|
2,1,6.1|
2,2,9.5|
];
constraint_x14_x11=[
0,0,7.7|
0,1,2.8|
0,2,2.1|
1,0,4.7|
1,1,1.6|
1,2,7.4|
2,0,0.11|
2,1,7.9|
2,2,0.99|
];
constraint_x15_x1=[
0,0,0.18|
0,1,7|
0,2,4|
1,0,0.53|
1,1,9.5|
1,2,4.4|
2,0,2.6|
2,1,5.1|
2,2,5.2|
];
constraint_x15_x2=[
0,0,9.7|
0,1,3.2|
0,2,9.7|
1,0,0.7|
1,1,3.4|
1,2,1.6|
2,0,4.8|
2,1,5.8|
2,2,1.1|
];
constraint_x15_x6=[
0,0,8.5|
0,1,0.39|
0,2,1.6|
1,0,8.8|
1,1,1.3|
1,2,0.27|
2,0,3.7|
2,1,8.8|
2,2,5.7|
];
constraint_x15_x9=[
0,0,4|
0,1,0.99|
0,2,2.4|
1,0,4.8|
1,1,5|
1,2,7.5|
2,0,7.6|
2,1,4|
2,2,7.6|
];
constraint_x15_x12=[
0,0,6.8|
0,1,6.1|
0,2,4|
1,0,6.4|
1,1,7|
1,2,3.2|
2,0,3.3|
2,1,1.6|
2,2,7|
];
constraint_x16_x2=[
0,0,0.13|
0,1,9.1|
0,2,5.4|
1,0,6.6|
1,1,5.4|
1,2,2.5|
2,0,0.91|
2,1,1.3|
2,2,9.3|
];
constraint_x16_x5=[
0,0,6.1|
0,1,7.1|
0,2,3.1|
1,0,1.4|
1,1,3.3|
1,2,5.2|
2,0,4.3|
2,1,2.9|
2,2,1.1|
];
constraint_x16_x8=[
0,0,9.1|
0,1,7.6|
0,2,4.9|
1,0,4.7|
1,1,3.5|
1,2,9|
2,0,8.7|
2,1,0.66|
2,2,6.3|
];
constraint_x16_x9=[
0,0,0.43|
0,1,2.3|
0,2,1.9|
1,0,2.7|
1,1,9.8|
1,2,5.5|
2,0,8.7|
2,1,7.1|
2,2,5.1|
];
constraint_x16_x11=[
0,0,5.1|
0,1,6.8|
0,2,8.6|
1,0,4.3|
1,1,6.6|
1,2,8.4|
2,0,1.1|
2,1,1.6|
2,2,6.1|
];
constraint_x16_x13=[
0,0,0.71|
0,1,6.1|
0,2,2.3|
1,0,3.4|
1,1,2.6|
1,2,2.7|
2,0,8.7|
2,1,9.7|
2,2,5|
];
constraint_x17_x1=[
0,0,8.7|
0,1,8.7|
0,2,7.5|
1,0,5.9|
1,1,6.8|
1,2,2.4|
2,0,9|
2,1,0.33|
2,2,3.8|
];
constraint_x17_x2=[
0,0,5.2|
0,1,3.5|
0,2,1.2|
1,0,7.9|
1,1,4.4|
1,2,8.3|
2,0,1.4|
2,1,4.2|
2,2,8.5|
];
constraint_x17_x4=[
0,0,8.7|
0,1,9|
0,2,8|
1,0,3.2|
1,1,6.7|
1,2,6.6|
2,0,3.9|
2,1,1.2|
2,2,4.7|
];
constraint_x17_x11=[
0,0,6.6|
0,1,1.2|
0,2,4.4|
1,0,2.6|
1,1,5.3|
1,2,7.9|
2,0,4.1|
2,1,9.1|
2,2,7.2|
];
constraint_x17_x12=[
0,0,8.7|
0,1,3.1|
0,2,0.82|
1,0,0.71|
1,1,8.8|
1,2,7.7|
2,0,8.8|
2,1,8.3|
2,2,9.1|
];
constraint_x17_x13=[
0,0,9.6|
0,1,7.9|
0,2,6.9|
1,0,6.9|
1,1,6.4|
1,2,2.1|
2,0,8.2|
2,1,3.9|
2,2,5.6|
];
constraint_x17_x14=[
0,0,8|
0,1,2.1|
0,2,7.9|
1,0,5.6|
1,1,6.3|
1,2,8.4|
2,0,0.6|
2,1,4.4|
2,2,5.9|
];
constraint_x17_x16=[
0,0,5.4|
0,1,5.1|
0,2,0.99|
1,0,3.1|
1,1,4.5|
1,2,8.3|
2,0,9.7|
2,1,2.4|
2,2,2.3|
];
constraint_x18_x3=[
0,0,8.7|
0,1,4.9|
0,2,3.2|
1,0,7.6|
1,1,0.47|
1,2,9.1|
2,0,3.4|
2,1,3.7|
2,2,4.7|
];
constraint_x18_x8=[
0,0,2.4|
0,1,5.6|
0,2,8.1|
1,0,2.6|
1,1,7.6|
1,2,8.2|
2,0,9.7|
2,1,0.9|
2,2,0.87|
];
constraint_x18_x9=[
0,0,3.1|
0,1,2.3|
0,2,8.1|
1,0,3.4|
1,1,4|
1,2,4.5|
2,0,4.7|
2,1,8|
2,2,6.2|
];
constraint_x18_x10=[
0,0,5.6|
0,1,4.9|
0,2,9.7|
1,0,8.4|
1,1,4.9|
1,2,4.6|
2,0,5|
2,1,1.2|
2,2,3.7|
];
constraint_x19_x2=[
0,0,8.6|
0,1,2.5|
0,2,3.7|
1,0,4.7|
1,1,6|
1,2,6.5|
2,0,7|
2,1,7.8|
2,2,4.5|
];
constraint_x19_x4=[
0,0,9|
0,1,7.9|
0,2,4.3|
1,0,5.7|
1,1,6.2|
1,2,7.4|
2,0,2.9|
2,1,9.2|
2,2,9.5|
];
constraint_x19_x5=[
0,0,7.5|
0,1,7.6|
0,2,3.8|
1,0,5.7|
1,1,2.5|
1,2,9.7|
2,0,2.5|
2,1,3|
2,2,1.6|
];
constraint_x19_x9=[
0,0,9.7|
0,1,8.3|
0,2,6|
1,0,4.8|
1,1,0.076|
1,2,0.77|
2,0,7.7|
2,1,3.4|
2,2,1.2|
];
constraint_x19_x10=[
0,0,6.2|
0,1,2.7|
0,2,0.78|
1,0,1.6|
1,1,3.8|
1,2,0.85|
2,0,5.6|
2,1,0.66|
2,2,4.2|
];
constraint_x19_x12=[
0,0,5.1|
0,1,7|
0,2,6.5|
1,0,3.9|
1,1,1.8|
1,2,8.3|
2,0,9.2|
2,1,8.6|
2,2,7.1|
];
constraint_x19_x13=[
0,0,3.5|
0,1,3.5|
0,2,2.7|
1,0,4.5|
1,1,2.3|
1,2,8.7|
2,0,1.3|
2,1,1.7|
2,2,9.1|
];
constraint_x19_x14=[
0,0,6.4|
0,1,2.4|
0,2,3.7|
1,0,4.3|
1,1,7.4|
1,2,3.6|
2,0,5|
2,1,1.5|
2,2,2.6|
];
constraint_x19_x17=[
0,0,5.4|
0,1,7.9|
0,2,8|
1,0,6.1|
1,1,1.3|
1,2,3.9|
2,0,0.94|
2,1,1.4|
2,2,6.5|
];
constraint_x20_x1=[
0,0,2.5|
0,1,3.3|
0,2,8|
1,0,8.2|
1,1,9.4|
1,2,8|
2,0,3.2|
2,1,7.5|
2,2,8|
];
constraint_x20_x2=[
0,0,0.44|
0,1,6.3|
0,2,7|
1,0,6.5|
1,1,9.4|
1,2,3.8|
2,0,3.9|
2,1,3.8|
2,2,0.68|
];
constraint_x20_x4=[
0,0,0.6|
0,1,4.8|
0,2,2.7|
1,0,7.8|
1,1,2.6|
1,2,7.1|
2,0,0.035|
2,1,9.9|
2,2,6.3|
];
constraint_x20_x5=[
0,0,3.6|
0,1,7.5|
0,2,5.9|
1,0,3.5|
1,1,5.7|
1,2,9.5|
2,0,7.4|
2,1,3.5|
2,2,3.1|
];
constraint_x20_x6=[
0,0,1.7|
0,1,8|
0,2,0.6|
1,0,8.7|
1,1,6.8|
1,2,0.38|
2,0,8.7|
2,1,0.18|
2,2,2.3|
];
constraint_x20_x7=[
0,0,4.1|
0,1,9|
0,2,9.4|
1,0,9.3|
1,1,1.3|
1,2,1.6|
2,0,2.9|
2,1,3.8|
2,2,4.1|
];
constraint_x20_x8=[
0,0,6|
0,1,3.6|
0,2,9|
1,0,3|
1,1,7.4|
1,2,5.4|
2,0,6.4|
2,1,0.76|
2,2,6.1|
];
constraint_x20_x10=[
0,0,6.7|
0,1,6.6|
0,2,9.5|
1,0,7.9|
1,1,3.6|
1,2,5|
2,0,8.3|
2,1,7.5|
2,2,4.3|
];
constraint_x20_x13=[
0,0,1.5|
0,1,3.2|
0,2,2.6|
1,0,3.1|
1,1,6.5|
1,2,7.1|
2,0,9.2|
2,1,0.18|
2,2,7.6|
];
constraint_x20_x14=[
0,0,4.9|
0,1,4.1|
0,2,7.1|
1,0,8.4|
1,1,0.027|
1,2,6.1|
2,0,8.4|
2,1,4.7|
2,2,8.7|
];
constraint_x20_x19=[
0,0,1.2|
0,1,2.3|
0,2,7.3|
1,0,5.7|
1,1,9.2|
1,2,7.9|
2,0,7.2|
2,1,8.7|
2,2,0.65|
];
constraint_x21_x1=[
0,0,6.2|
0,1,1.4|
0,2,7.8|
1,0,4.5|
1,1,7.3|
1,2,2.6|
2,0,4.6|
2,1,5.3|
2,2,1.3|
];
constraint_x21_x7=[
0,0,5|
0,1,8.5|
0,2,0.4|
1,0,4.3|
1,1,1.2|
1,2,5.7|
2,0,2.2|
2,1,5.2|
2,2,8.3|
];
constraint_x21_x9=[
0,0,1.1|
0,1,7.1|
0,2,9.2|
1,0,6.7|
1,1,0.087|
1,2,4.7|
2,0,3.6|
2,1,8.9|
2,2,8.5|
];
constraint_x21_x12=[
0,0,4.4|
0,1,9.4|
0,2,2|
1,0,3.8|
1,1,1.7|
1,2,7.4|
2,0,9.7|
2,1,0.33|
2,2,5.9|
];
constraint_x21_x15=[
0,0,5.3|
0,1,6.1|
0,2,9.2|
1,0,3.6|
1,1,0.53|
1,2,5.7|
2,0,2.8|
2,1,6.3|
2,2,5.4|
];
constraint_x21_x16=[
0,0,4.6|
0,1,6.5|
0,2,1.5|
1,0,4.7|
1,1,5.5|
1,2,1.1|
2,0,3.3|
2,1,3.7|
2,2,3.8|
];
constraint_x21_x17=[
0,0,2.7|
0,1,0.044|
0,2,4.3|
1,0,8.1|
1,1,5|
1,2,1.6|
2,0,0.3|
2,1,6.5|
2,2,5.3|
];
constraint_x21_x18=[
0,0,9.1|
0,1,8.8|
0,2,7.7|
1,0,9.6|
1,1,9.2|
1,2,0.81|
2,0,7.4|
2,1,7.3|
2,2,1.8|
];
constraint_x22_x3=[
0,0,8.9|
0,1,6|
0,2,1.7|
1,0,3.8|
1,1,0.93|
1,2,7|
2,0,7.8|
2,1,9.7|
2,2,1.2|
];
constraint_x22_x6=[
0,0,1.1|
0,1,2.6|
0,2,3.9|
1,0,4.1|
1,1,2.3|
1,2,9|
2,0,2.2|
2,1,1|
2,2,5.6|
];
constraint_x22_x8=[
0,0,2.4|
0,1,3.7|
0,2,4.6|
1,0,7.2|
1,1,7.2|
1,2,7.5|
2,0,1.6|
2,1,0.26|
2,2,2.9|
];
constraint_x22_x10=[
0,0,5.1|
0,1,4.9|
0,2,7.8|
1,0,1.6|
1,1,9.3|
1,2,3.5|
2,0,5.7|
2,1,3|
2,2,5.5|
];
constraint_x22_x12=[
0,0,1.1|
0,1,3.9|
0,2,3.3|
1,0,4|
1,1,5.8|
1,2,8.7|
2,0,5.4|
2,1,9.2|
2,2,6.4|
];
constraint_x22_x13=[
0,0,7.3|
0,1,1.8|
0,2,7.2|
1,0,7.6|
1,1,1.5|
1,2,6|
2,0,4.7|
2,1,1.9|
2,2,2.7|
];
constraint_x22_x15=[
0,0,8.6|
0,1,9.8|
0,2,7.1|
1,0,5.6|
1,1,3.3|
1,2,3.1|
2,0,7.4|
2,1,5.5|
2,2,3.9|
];
constraint_x22_x18=[
0,0,1|
0,1,6.6|
0,2,3.9|
1,0,4.6|
1,1,4.5|
1,2,1.5|
2,0,8.4|
2,1,0.46|
2,2,9.4|
];
constraint_x22_x19=[
0,0,0.97|
0,1,5.4|
0,2,2.7|
1,0,7.5|
1,1,4.7|
1,2,0.71|
2,0,9|
2,1,3.2|
2,2,5.9|
];
constraint_x23_x1=[
0,0,7.8|
0,1,4.1|
0,2,4.3|
1,0,8.5|
1,1,7.5|
1,2,8.3|
2,0,6.9|
2,1,2.9|
2,2,6.8|
];
constraint_x23_x4=[
0,0,8.7|
0,1,2.1|
0,2,7|
1,0,0.2|
1,1,5.8|
1,2,3.9|
2,0,0.67|
2,1,7.7|
2,2,7.3|
];
constraint_x23_x6=[
0,0,5.4|
0,1,0.47|
0,2,6.7|
1,0,9.4|
1,1,5.7|
1,2,3.6|
2,0,7.1|
2,1,3.7|
2,2,9.4|
];
constraint_x23_x7=[
0,0,9.2|
0,1,8|
0,2,8.7|
1,0,7.3|
1,1,7.1|
1,2,1.7|
2,0,5.9|
2,1,7.1|
2,2,3.8|
];
constraint_x23_x8=[
0,0,1.6|
0,1,2.8|
0,2,1.6|
1,0,4.9|
1,1,2.2|
1,2,7.1|
2,0,4.5|
2,1,2.5|
2,2,3|
];
constraint_x23_x10=[
0,0,1.6|
0,1,9.4|
0,2,5.1|
1,0,3.6|
1,1,8.3|
1,2,5.6|
2,0,4.4|
2,1,2.2|
2,2,1.7|
];
constraint_x23_x12=[
0,0,4.4|
0,1,1.6|
0,2,3.1|
1,0,2.7|
1,1,2.5|
1,2,5.2|
2,0,1.4|
2,1,3.7|
2,2,0.5|
];
constraint_x23_x13=[
0,0,7.9|
0,1,3.4|
0,2,9.7|
1,0,6.6|
1,1,1.2|
1,2,3.4|
2,0,7.3|
2,1,4.3|
2,2,1.1|
];
constraint_x23_x17=[
0,0,7.8|
0,1,5.1|
0,2,5.4|
1,0,9.2|
1,1,8.7|
1,2,1.2|
2,0,0.91|
2,1,0.49|
2,2,9.7|
];
constraint_x23_x19=[
0,0,6.7|
0,1,2.9|
0,2,0.34|
1,0,3|
1,1,6|
1,2,8.9|
2,0,2.1|
2,1,0.33|
2,2,0.27|
];
constraint_x23_x20=[
0,0,2.5|
0,1,7|
0,2,8.4|
1,0,2|
1,1,6|
1,2,3.6|
2,0,6.6|
2,1,5.1|
2,2,0.35|
];
constraint_x24_x2=[
0,0,6.6|
0,1,2.3|
0,2,5|
1,0,6.1|
1,1,4.2|
1,2,4|
2,0,4.1|
2,1,4.9|
2,2,2.5|
];
constraint_x24_x4=[
0,0,9.2|
0,1,6.1|
0,2,6.1|
1,0,3.1|
1,1,8|
1,2,3|
2,0,7.6|
2,1,9.6|
2,2,9.4|
];
constraint_x24_x6=[
0,0,1.2|
0,1,8.2|
0,2,2.6|
1,0,4.7|
1,1,8.3|
1,2,0.55|
2,0,6.1|
2,1,9|
2,2,1.8|
];
constraint_x24_x8=[
0,0,3.8|
0,1,3|
0,2,8.3|
1,0,9|
1,1,4.2|
1,2,9.1|
2,0,5.2|
2,1,5.2|
2,2,7.6|
];
constraint_x24_x9=[
0,0,2.5|
0,1,2.9|
0,2,4.2|
1,0,0.6|
1,1,7.8|
1,2,6.6|
2,0,8.3|
2,1,3.9|
2,2,4.7|
];
constraint_x24_x10=[
0,0,0.71|
0,1,10|
0,2,5.1|
1,0,8.8|
1,1,2.7|
1,2,1.4|
2,0,7.9|
2,1,8.4|
2,2,4|
];
constraint_x24_x11=[
0,0,6.7|
0,1,8.8|
0,2,1.8|
1,0,4.9|
1,1,3|
1,2,2.2|
2,0,0.27|
2,1,7.5|
2,2,6.6|
];
constraint_x24_x12=[
0,0,5|
0,1,1.1|
0,2,0.54|
1,0,5|
1,1,3.4|
1,2,4.5|
2,0,8.8|
2,1,4.4|
2,2,7.5|
];
constraint_x24_x13=[
0,0,3.1|
0,1,2.3|
0,2,8.6|
1,0,3.1|
1,1,0.92|
1,2,1.7|
2,0,4.1|
2,1,8|
2,2,4.9|
];
constraint_x24_x17=[
0,0,1.9|
0,1,5.5|
0,2,7.4|
1,0,4.6|
1,1,0.63|
1,2,6|
2,0,5.5|
2,1,1.2|
2,2,8.8|
];
constraint_x24_x18=[
0,0,3.1|
0,1,4.4|
0,2,9.4|
1,0,6.3|
1,1,4.5|
1,2,0.72|
2,0,8.9|
2,1,3.7|
2,2,1.2|
];
constraint_x24_x19=[
0,0,9.7|
0,1,9.7|
0,2,1.5|
1,0,3.1|
1,1,9.5|
1,2,1.2|
2,0,7.3|
2,1,6.5|
2,2,5.1|
];
constraint_x24_x20=[
0,0,5|
0,1,4.4|
0,2,9.8|
1,0,3.4|
1,1,9.2|
1,2,7|
2,0,3.3|
2,1,6.3|
2,2,2.9|
];
constraint_x24_x21=[
0,0,7.7|
0,1,1.9|
0,2,3.1|
1,0,8.2|
1,1,3.1|
1,2,5.9|
2,0,2.8|
2,1,6.4|
2,2,3.2|
];
constraint_x24_x23=[
0,0,0.4|
0,1,9.7|
0,2,7|
1,0,8.6|
1,1,4.3|
1,2,4.9|
2,0,8.5|
2,1,2.1|
2,2,6.9|
];
constraint_x25_x2=[
0,0,9.2|
0,1,6|
0,2,4.6|
1,0,5.6|
1,1,0.14|
1,2,6.4|
2,0,1.3|
2,1,0.18|
2,2,4.2|
];
constraint_x25_x3=[
0,0,2.7|
0,1,4.7|
0,2,4.9|
1,0,1.4|
1,1,6|
1,2,7|
2,0,8.3|
2,1,8.9|
2,2,9.4|
];
constraint_x25_x6=[
0,0,6|
0,1,1|
0,2,7.9|
1,0,6.1|
1,1,1.6|
1,2,5.6|
2,0,1.5|
2,1,6.3|
2,2,9|
];
constraint_x25_x7=[
0,0,7.4|
0,1,3.6|
0,2,1.6|
1,0,3.4|
1,1,6.4|
1,2,5.6|
2,0,2.9|
2,1,1.8|
2,2,9.6|
];
constraint_x25_x8=[
0,0,0.59|
0,1,3.8|
0,2,2.9|
1,0,2.3|
1,1,9.3|
1,2,3|
2,0,2.1|
2,1,5.1|
2,2,9|
];
constraint_x25_x9=[
0,0,6.3|
0,1,6.3|
0,2,7.5|
1,0,2.2|
1,1,3.9|
1,2,2.6|
2,0,0.47|
2,1,0.84|
2,2,1.5|
];
constraint_x25_x11=[
0,0,4.6|
0,1,0.85|
0,2,4.7|
1,0,0.085|
1,1,7.3|
1,2,0.49|
2,0,8.5|
2,1,6.8|
2,2,6.7|
];
constraint_x25_x12=[
0,0,7.2|
0,1,5.7|
0,2,0.32|
1,0,0.58|
1,1,0.94|
1,2,6.9|
2,0,5.2|
2,1,8.5|
2,2,0.49|
];
constraint_x25_x16=[
0,0,0.83|
0,1,8.7|
0,2,7.7|
1,0,9.3|
1,1,8|
1,2,3.6|
2,0,5.1|
2,1,2.8|
2,2,9|
];
constraint_x25_x17=[
0,0,3.5|
0,1,9.8|
0,2,3.2|
1,0,6.4|
1,1,5.1|
1,2,1.5|
2,0,6.2|
2,1,1|
2,2,5.9|
];
constraint_x25_x19=[
0,0,1.4|
0,1,3|
0,2,6.9|
1,0,4.8|
1,1,3.7|
1,2,3.4|
2,0,8.5|
2,1,7.3|
2,2,7.4|
];
constraint_x25_x20=[
0,0,4.8|
0,1,4.5|
0,2,9|
1,0,5.1|
1,1,8.4|
1,2,3|
2,0,1.9|
2,1,7.2|
2,2,4.7|
];
constraint_x25_x24=[
0,0,3.2|
0,1,8.6|
0,2,1.7|
1,0,5.8|
1,1,9.7|
1,2,0.96|
2,0,6.2|
2,1,4.2|
2,2,9.3|
];
constraint_x1_y1=[
0,0,3.2|
0,1,8.5|
0,2,2.8|
1,0,9.4|
1,1,5|
1,2,0.69|
2,0,4.5|
2,1,1.5|
2,2,3|
];
constraint_x2_y2=[
0,0,0.85|
0,1,1.9|
0,2,1|
1,0,6.6|
1,1,3.4|
1,2,4.9|
2,0,7.9|
2,1,4.1|
2,2,5|
];
constraint_x3_y3=[
0,0,2|
0,1,2.2|
0,2,8.1|
1,0,8.9|
1,1,8.7|
1,2,2.9|
2,0,2|
2,1,4|
2,2,9.8|
];
constraint_x4_y4=[
0,0,1.1|
0,1,1.9|
0,2,1.9|
1,0,2.9|
1,1,4|
1,2,7.1|
2,0,2|
2,1,0.4|
2,2,6.4|
];
constraint_x5_y5=[
0,0,6.8|
0,1,2.1|
0,2,1.4|
1,0,0.94|
1,1,0.42|
1,2,7.1|
2,0,9.1|
2,1,4.3|
2,2,2.8|
];
initial_distribution_y1=[0.51,0.48,0.014];
initial_distribution_y2=[0.2,0.47,0.33];
initial_distribution_y3=[0.25,0.58,0.17];
initial_distribution_y4=[0.25,0.71,0.04];
initial_distribution_y5=[0.62,0.15,0.23];
transition_y1=[
0.34,0.4,0.26|
0.56,0.2,0.24|
0.069,0.41,0.52|
];
transition_y2=[
0.38,0.49,0.14|
0.43,0.47,0.1|
0.091,0.89,0.021|
];
transition_y3=[
0.079,0.24,0.68|
0.33,0.43,0.24|
0.41,0.071,0.52|
];
transition_y4=[
0.47,0.4,0.13|
0.081,0.046,0.87|
0.45,0.27,0.28|
];
transition_y5=[
0.57,0.11,0.32|
0.54,0.21,0.24|
0.29,0.23,0.49|
];
